analyze/results_flowersnark/final_miplib_symretope_if_extended_generating_set_cpx_v802__settings_final_nopeek_norelabel_extend_norestarts__4__neos-498623.mps.gz.sol
solution status: optimal solution found
objective value:                                 16.6
C1363                                               1 	(obj:0)
C1364                                               1 	(obj:0)
C1372                                               1 	(obj:0)
C1376                                               1 	(obj:0)
C1382                                               1 	(obj:0)
C1385                                               1 	(obj:0)
C1389                                               1 	(obj:0)
C1392                                               1 	(obj:0)
C1396                                               1 	(obj:0)
C1401                                               1 	(obj:0)
C1404                                               1 	(obj:0)
C1408                                               1 	(obj:-1)
C1510                                               1 	(obj:-0.9)
C1560                                               1 	(obj:-1)
C1649                                               1 	(obj:-1)
C1719                                               1 	(obj:-1)
C1812                                               1 	(obj:-0.9)
C1886                                               1 	(obj:-0.9)
C1988                                               1 	(obj:-0.9)
C2021                                               1 	(obj:-1)
C2156                                               1 	(obj:-1)
C2732                                               1 	(obj:-1)
C3174                                               1 	(obj:-1)
C3435                                               1 	(obj:-1)
C3897                                               1 	(obj:-1)
C4451                                               1 	(obj:-1)
C4720                                               1 	(obj:-1)
C5166                                               1 	(obj:-1)
C5613                                               1 	(obj:-1)
C6048                                               1 	(obj:-1)
C6336                                               1 	(obj:-1)
C6545                                               1 	(obj:-1)
C6848                                               1 	(obj:-1)
C7241                                               1 	(obj:-1)
C7328                                               1 	(obj:-1)
C7444                                               1 	(obj:-0.9)
C7575                                               1 	(obj:-1)
C7634                                               1 	(obj:-1)
C7695                                               1 	(obj:-1)
C7861                                               1 	(obj:-1)
C8202                                               1 	(obj:-1)
C8662                                               1 	(obj:-1)
C8860                                               1 	(obj:-1)
C8911                                               1 	(obj:-1)
C8967                                               1 	(obj:-1)
C9032                                               1 	(obj:-1)
C9087                                               1 	(obj:-1)
C9108                                               1 	(obj:-1)
C9110                                               1 	(obj:-1)
C9153                                               1 	(obj:-5)
C9199                                               1 	(obj:-5)
C9252                                               1 	(obj:-5)
C9324                                               1 	(obj:-5)
C9396                                               1 	(obj:-5)
C9437                                               1 	(obj:-5)
C9518                                               1 	(obj:-5)
C9568                                               1 	(obj:-5)
C9636                                               1 	(obj:-5)
C9711                                               1 	(obj:-1)
C9736                                               1 	(obj:-1)
C9835                                               1 	(obj:-0.9)
C1024                                               1 	(obj:0)
C1348                                               2 	(obj:1)
C0016                                               3 	(obj:0)
C0019                                               3 	(obj:0)
C0020                                               1 	(obj:0)
C0021                                               3 	(obj:0)
C0022                                               3 	(obj:0)
C0023                                               3 	(obj:0)
C0024                                               2 	(obj:0)
C0025                                               3 	(obj:0)
C0027                                               3 	(obj:0)
C0028                                               3 	(obj:0)
C0029                                               4 	(obj:0)
C0031                                               4 	(obj:0)
C0032                                               2 	(obj:0)
C0033                                               3 	(obj:0)
C0034                                               3 	(obj:0)
C0035                                               3 	(obj:0)
C0037                                               2 	(obj:0)
C0038                                               2 	(obj:0)
C0039                                               3 	(obj:0)
C0041                                               3 	(obj:0)
C0042                                               3 	(obj:0)
C0044                                               3 	(obj:0)
C0045                                               3 	(obj:0)
C0046                                               3 	(obj:0)
C0048                                               2 	(obj:0)
C0049                                               3 	(obj:0)
C0050                                               2 	(obj:0)
C0051                                               2 	(obj:0)
C0053                                               2 	(obj:0)
C0054                                               2 	(obj:0)
C0056                                               3 	(obj:0)
C0057                                               1 	(obj:0)
C0058                                               3 	(obj:0)
C0074                                               1 	(obj:100)
C0295                                               1 	(obj:0)
